language ESSENCE' 1.0
letting lastdx=85
letting cage be [
[4,2,15,0,0, 0,0, 0,0, 0,0],
[18,5,16,6,16,0,0, 0,0, 0,0],
[16,1,2,1,1,2,1,2,2,0,0],
[9,7,2,0,0, 0,0, 0,0, 0,0],
[20,13,9,13,8,0,0, 0,0, 0,0],
[16,8,16,7,16,0,0, 0,0, 0,0],
[2,14,4,0,0, 0,0, 0,0, 0,0],
[32,6,14,6,15,5,15,4,15,4,14],
[25,10,4,10,3,9,3,0,0, 0,0],
[31,13,4,13,5,13,6,13,7,14,7],
[11,7,6,8,6,9,6,0,0, 0,0],
[2,3,10,0,0, 0,0, 0,0, 0,0],
[15,6,4,6,3,5,3,0,0, 0,0],
[37,4,6,5,6,5,5,0,0, 0,0],
[35,15,8,16,8,16,9,16,10,15,10],
[46,1,3,1,4,1,5,2,5,2,6],
[7,10,9,0,0, 0,0, 0,0, 0,0],
[39,14,11,15,11,16,11,16,12,0,0],
[41,11,7,11,6,11,5,10,5,0,0],
[18,16,16,15,16,15,15,15,14,0,0],
[7,7,3,0,0, 0,0, 0,0, 0,0],
[17,15,7,15,6,0,0, 0,0, 0,0],
[16,5,4,0,0, 0,0, 0,0, 0,0],
[12,6,2,0,0, 0,0, 0,0, 0,0],
[16,2,3,0,0, 0,0, 0,0, 0,0],
[21,2,4,3,4,0,0, 0,0, 0,0],
[47,3,3,4,3,4,4,4,5,0,0],
[42,13,13,13,14,13,15,13,16,14,16],
[31,3,16,4,16,2,16,0,0, 0,0],
[13,1,8,0,0, 0,0, 0,0, 0,0],
[36,11,9,11,10,10,10,10,11,9,11],
[4,4,11,0,0, 0,0, 0,0, 0,0],
[20,2,14,2,13,1,13,0,0, 0,0],
[5,3,13,0,0, 0,0, 0,0, 0,0],
[15,5,1,0,0, 0,0, 0,0, 0,0],
[16,8,13,0,0, 0,0, 0,0, 0,0],
[8,4,1,0,0, 0,0, 0,0, 0,0],
[33,12,2,12,3,13,3,0,0, 0,0],
[9,1,12,0,0, 0,0, 0,0, 0,0],
[15,7,1,6,1,0,0, 0,0, 0,0],
[25,8,12,8,11,7,11,7,12,0,0],
[1,10,13,0,0, 0,0, 0,0, 0,0],
[13,1,10,1,11,0,0, 0,0, 0,0],
[16,14,1,15,1,0,0, 0,0, 0,0],
[50,10,6,10,7,10,8,9,8,0,0],
[33,13,10,13,11,12,11,12,10,0,0],
[40,8,5,8,4,7,4,7,5,0,0],
[29,16,7,16,6,0,0, 0,0, 0,0],
[31,9,10,9,9,0,0, 0,0, 0,0],
[10,8,15,0,0, 0,0, 0,0, 0,0],
[35,16,2,16,1,16,3,0,0, 0,0],
[35,5,2,4,2,3,2,3,1,0,0],
[28,10,12,9,12,9,13,9,14,10,14],
[56,6,13,7,13,7,14,7,15,8,14],
[39,1,6,1,7,2,7,2,8,3,8],
[22,16,5,15,5,14,5,14,6,0,0],
[12,9,5,9,4,0,0, 0,0, 0,0],
[2,7,9,0,0, 0,0, 0,0, 0,0],
[54,10,2,9,2,11,2,11,1,12,1],
[33,8,9,8,10,7,10,0,0, 0,0],
[27,16,14,16,15,0,0, 0,0, 0,0],
[39,1,9,2,9,3,9,0,0, 0,0],
[10,1,14,0,0, 0,0, 0,0, 0,0],
[23,1,15,1,16,0,0, 0,0, 0,0],
[27,2,10,2,11,3,11,0,0, 0,0],
[42,2,12,3,12,4,12,5,12,6,12],
[17,3,5,3,6,3,7,0,0, 0,0],
[9,3,14,3,15,0,0, 0,0, 0,0],
[11,4,13,0,0, 0,0, 0,0, 0,0],
[33,5,7,6,7,6,6,6,5,0,0],
[11,5,13,5,14,0,0, 0,0, 0,0],
[25,8,7,8,8,9,7,0,0, 0,0],
[46,9,15,9,16,10,16,11,16,12,16],
[30,10,15,11,15,11,14,0,0, 0,0],
[17,11,8,12,8,12,9,0,0, 0,0],
[12,11,11,0,0, 0,0, 0,0, 0,0],
[8,11,12,11,13,0,0, 0,0, 0,0],
[14,12,6,12,7,0,0, 0,0, 0,0],
[4,13,1,0,0, 0,0, 0,0, 0,0],
[5,13,2,0,0, 0,0, 0,0, 0,0],
[6,14,2,0,0, 0,0, 0,0, 0,0],
[52,14,3,15,3,15,2,15,4,16,4],
[11,14,8,0,0, 0,0, 0,0, 0,0],
[21,14,9,14,10,15,9,0,0, 0,0],
[48,14,12,14,13,14,14,14,15,0,0],
[13,15,12,15,13,16,13,0,0, 0,0]
]
